##TITLE=Caffeine
##JCAMP-DX=4.24
##DATA TYPE=INFRARED SPECTRUM
##ORIGIN=Pacific Northwest National Laboratory Under IARPA Contract
##OWNER=Public domain
##DATE=March 2017
##CAS REGISTRY NO=58-08-2
##MOLFORM=C 8 H 10 N 4 O 2
##$NIST SOURCE=IARPA-IR-S
##$NIST DOC FILE=META.MIR.PUR.Caffeine.SLD.ALFA-AESAR.PNNL509703.pdf
##$NIST PSD FILE=PSD.MIR.PUR.Caffeine.SLD.ALFA-AESAR.PNNL509703.txt
##SPECTROMETER/DATA SYSTEM=Bruker Tensor 37 FTIR
##APERTURE=6 mm
##EXTERNAL DIFFUSE REFLECTANCE ACCESSORY=A 562-G integrating sphere
##BEAMSPLITTER=Ge on KBr
##DETECTOR (DIA. DET. PORT IN SPHERE)=2×2 mm, 60° field of view MCT
##SPHERE DIAMETER=75 mm
##ACQUISITION MODE=double-sided, forward-backward
##SCANNER SPEED=40 kHz
##COADDED SCANS=2048
##PHASE RESOLUTION=32.00
##PHASE CORRECTION=Mertz
##ZEROFILLING=4×
##SPECTRAL RANGE=7,500 to 600 cm-1 saved; 7500 to 600 cm-1 reported
##STATE=solid
##RESOLUTION=0.96450084
##SPECTRAL RESOLUTION=4 cm-1
##WAVENUMBER ACCURACY=± 0.4 cm-1
##APODIZATION FUNCTION=Blackman-Harris 3-term
##LOW PASS FILTER=Open
##SWITCH GAIN ON=512 points
##XUNITS=1/cm
##YUNITS=Reflectance
##XLABEL=Wavenumber
##YLABEL=Hemispherical (Total) reflectance
##XFACTOR=1
##YFACTOR=8.1811308e-010
##DELTAX=-0.96450084
##FIRSTX=7498.0295
##LASTX=600.88402
##FIRSTY=0.82244176
##MAXX=7498.03
##MINX=600.886
##MAXY=0.87844223
##MINY=0.025070133
##NPOINTS=7152
##XYDATA=(X++(Y..Y))
7498.03+1005291052+1005173389+1004853404+1004407014+1003900736+1003352274
7492.24+1002728552+1002123189+1001448249+1000643625+999719298+998744773
7486.46+997798079+996916591+996084208+995257873+994402832+993511217+992593229
7479.70+991655350+990689204+989685463+988665330+987700932+986897546+986338812
7472.95+986029318+985880036+985749113+985509635+985098871+984521631+983816237
7466.20+983015037+982125681+981144161+980089349+979030820+978080921+977344198
7459.45+976855770+976559100+976345704+976127863+975888021+975666538+975507274
7452.70+975406077+975304879+975131846+974857251+974523423+974225514+974052481
7445.95+974022391+974056998+974013794+973759234+973235325+972479806+971592490
7439.19+970677197+969801173+968990720+968251812+967589768+967011726+966516012
7432.44+966084412+965686690+965296253+964906181+964538330+964238308+964053617
7425.69+964001233+964043927+964091357+964031906+963779240+963306986+962655069
7418.94+961910769+961169603+960494808+959891923+959319127+958730740+958124285
7412.19+957550542+957073625+956713642+956420614+956096622+955648192+955033213
7405.44+954275144+953444437+952617081+951835552+951100068+950396714+949738385
7398.69+949175935+948762840+948503545+948331896+948145384+947865178+947476709
7391.93+947024709+946573146+946159322+945769396+945347704+944836107+944220982
7385.18+943552235+942915471+942377428+941949397+941602237+941314892+941109365
7378.43+941041390+941159344+941474156+941965353+942611588+943412278+944380610
7371.68+945516148+946778528+948080906+949310501+950362545+951173945+951735739
7364.93+952074521+952215935+952161438+951900831+951446937+950861246+950244299
7358.18+949699043+949299426+949078963+949037654+949152111+949392100+949740061
7351.43+950207288+950829626+951640079+952635951+953761944+954915623+955969124
7344.67+956800268+957327383+957533420+957465300+957200686+956806679+956318615
7337.92+955747714+955100532+954389965+953638016+952880456+952170400+951567004
7331.17+951104731+950766460+950489387+950203864+949876885+949525937+949197282
7324.42+948930701+948737996+948605835+948514182+948454877+948438266+948485914
7317.67+948615233+948828557+949114517+949460657+949864791+950330779+950849807
7310.92+951385446+951876716+952261470+952500293+952583859+952520255+952322451
7304.16+952005963+951594034+951115368+950596778+950058443+949520254+949005889
7297.41+948532687+948095258+947669268+947241456+946842204+946542838+946411551
7290.66+946458252+946613144+946756962+946784502+946663123+946448416+946243836
7283.91+946126829+946091639+946051859+945905054+945609986+945219550+944850606
7277.16+944620016+944592840+944766384+945086296+945480812+945895583+946314215
7270.41+946752227+947230018+947747006+948276889+948784406+949245731+949657369
7263.66+950032652+950395330+950773891+951195729+951680368+952233274+952840896
7256.90+953468188+954063205+954575384+954983962+955319246+955654094+956062089
7250.15+956567492+957124333+957645765+958066291+958391303+958696279+959071707
7243.40+959558314+960117704+960660847+961111026+961457968+961769647+962161686
7236.65+962743880+963568467+964605212+965757506+966911403+967992007+968990065
7229.90+969945793+970904581+971875682+972815454+973637856+974251597+974607281
7223.15+974733031+974730481+974726255+974811133+975008864+975291911+975621003
7216.40+975971441+976337471+976727325+977164316+977683854+978313041+979038835
7209.64+979792241+980471407+980993640+981342768+981579405+981809776+982132019
7202.89+982588974+983149311+983728300+984234432+984615543+984875494+985052462
7196.14+985180033+985260976+985272852+985193439+985023684+984796008+984570445
7189.39+984425315+984441344+984675212+985134789+985774540+986521535+987311734
7182.64+988109510+988895774+989641604+990295707+990799289+991117380+991264695
7175.89+991309137+991347460+991462718+991683910+991975918+992268435+992506967
7169.13+992689909+992866804+993104752+993446521+993883513+994350667+994744892
7162.38+994966885+994970455+994792977+994543663+994352561+994313510+994452010
7155.63+994731559+995085932+995460049+995839921+996256076+996758201+997373691
7148.88+998077555+998796355+999439967+999938959+1000267104+1000442760
7143.09+1000514014+1000535943+1000549932+1000577034+1000628179+1000719322
7137.31+1000868751+1001074642+1001296927+1001474405+1001574946+1001636510
7131.52+1001759054+1002042392+1002517560+1003121757+1003734842+1004251539
7125.73+1004639571+1004950376+1005277500+1005694238+1006212610+1006786572
7119.95+1007352155+1007869070+1008336588+1008779336+1009223613+1009679620
7114.16+1010134170+1010547921+1010856904+1010988191+1010890200+1010563585
7108.37+1010073845+1009532888+1009057647+1008724111+1008545176+1008482956
7102.58+1008491044+1008558290+1008723965+1009053057+1009589279+1010318934
7096.80+1011166543+1012024790+1012803404+1013472589+1014077223+1014708960
7091.01+1015445026+1016290887+1017168441+1017961481+1018590084+1019061901
7085.22+1019467638+1019923062+1020496805+1021164387+1021815867+1022312747
7079.44+1022561988+1022562280+1022391650+1022148602+1021889889+1021608081
7073.65+1021258809+1020811180+1020285303+1019755711+1019323747+1019075234
7067.86+1019045363+1019207541+1019488110+1019797385+1020060251+1020233794
7062.08+1020308836+1020297398+1020212083+1020049176+1019791484+1019434197
7056.29+1019012359+1018599556+1018268861+1018043954+1017883087+1017710200
7050.50+1017469483+1017158605+1016822155+1016511860+1016246372+1015995164
7044.71+1015698639+1015314541+1014856712+1014396479+1014016898+1013754834
7038.93+1013577211+1013407893+1013177667+1012857172+1012453185+1011988653
7033.14+1011487111+1010969831+1010453791+1009947221+1009444586+1008926432
7027.35+1008365804+1007739750+1007043900+1006303753+1005568488+1004884004
7021.57+1004260792+1003662933+1003029740+1002312470+1001501216+1000625702
7015.78+999736346+998879775+998079304+997327209+996594129+995849684+995082362
7009.03+994303165+993534968+992796425+992094309+991422866+990767961+990114805
7002.28+989458953+988811334+988188632+987592522+986998525+986370723+985694471
6995.52+984999860+984354645+983829060+983456036+983209782+983016421+982796468
6988.77+982515680+982212453+981974650+981876804+981921028+982026013+982071767
6982.02+981962701+981668216+981221462+980688227+980131460+979587005+979059162
6975.27+978533941+977999176+977459311+976937369+976465552+976070963+975763728
6968.52+975531098+975342983+975169075+974998155+974844428+974733905+974684363
6961.77+974695583+974757365+974864828+975025184+975249946+975542901+975891955
6955.02+976271973+976654323+977017147+977350464+977653546+977930400+978186854
6948.26+978430631+978668288+978899461+979113439+979298057+979453022+979595529
6941.51+979749693+979931688+980147415+980406273+980733252+981164998+981729780
6934.76+982430293+983240381+984119173+985028492+985944222+986853395+987740784
6928.01+988579724+989334952+989978637+990503566+990918701+991234460+991457618
6921.26+991608576+991740592+991934900+992262534+992740908+993323394+993937353
6914.51+994541332+995158570+995857771+996694744+997657320+998654285+999558795
6907.75+1000272787+1000769302+1001087319+1001290952+1001426174+1001503328
6901.97+1001510031+1001437466+1001299622+1001132053+1000973518+1000848132
6896.18+1000763983+1000729959+1000769957+1000916836+1001187351+1001562342
6890.39+1001994380+1002436763+1002870330+1003307759+1003775933+1004293431
6884.61+1004855663+1005435598+1005998413+1006524508+1007023792+1007529195
6878.82+1008071173+1008656500+1009267327+1009873491+1010443372+1010943895
6873.03+1011343365+1011627432+1011816202+1011960093+1012111562+1012295451
6867.25+1012505860+1012731495+1012983651+1013300575+1013726129+1014278379
6861.46+1014930952+1015618205+1016263930+1016819823+1017290475+1017724115
6855.67+1018174658+1018663596+1019174683+1019685259+1020204214+1020781454
6849.88+1021478616+1022325351+1023296015+1024320811+1025320981+1026244653
6844.10+1027082354+1027857471+1028598784+1029312192+1029969938+1030529183
6838.31+1030969963+1031324481+1031671641+1032095446+1032635529+1033271200
6832.52+1033952843+1034658237+1035428765+1036353602+1037510486+1038898908
6826.74+1040412860+1041876324+1043124715+1044083795+1044794872+1045368251
6820.95+1045897915+1046398001+1046805559+1047046130+1047110753+1047087658
6815.16+1047126345+1047360650+1047843979+1048535093+1049331776+1050125035
6809.38+1050838734+1051440090+1051930850+1052333526+1052683017+1053018593
6803.59+1053369906+1053744023+1054125061+1054492038+1054839052+1055175939
6797.80+1055507071+1055808623+1056032583+1056141357+1056145219+1056110175
6792.01+1056126859+1056263829+1056539590+1056928205+1057387126+1057878833
6786.23+1058373308+1058836164+1059222229+1059485532+1059602758+1059588988
6780.44+1059490486+1059355629+1059208824+1059050944+1058887018+1058754857
6774.65+1058723456+1058856855+1059172614+1059628330+1060144371+1060642052
6768.87+1061070884+1061415712+1061692785+1061943993+1062226675+1062591393
6763.08+1063053812+1063576410+1064080138+1064483106+1064747647+1064901811
6757.29+1065020931+1065176187+1065383755+1065588699+1065696527+1065630737
6751.51+1065380403+1065006214+1064607326+1064272260+1064043783+1063913443
6745.72+1063841534+1063787110+1063731011+1063683946+1063677170+1063742304
6739.93+1063893189+1064115546+1064371344+1064615923+1064816496+1064962937
6734.14+1065063624+1065133202+1065184930+1065231777+1065289916+1065376178
6728.36+1065497920+1065646329+1065802314+1065950795+1066090752+1066232093
6722.57+1066383124+1066538818+1066680377+1066787039+1066853411+1066898800
6716.78+1066959417+1067064111+1067214049+1067383149+1067541684+1067681422
6711.00+1067817736+1067966363+1068116447+1068227771+1068254946+1068181799
6705.21+1068039146+1067893069+1067811398+1067829393+1067939989+1068117102
6699.42+1068353958+1068682831+1069152608+1069776476+1070492289+1071173349
6693.64+1071688078+1071969012+1072043471+1072007189+1071960925+1071951016
6687.85+1071950944+1071893023+1071728659+1071474974+1071214804+1071048036
6682.06+1071029822+1071139106+1071298006+1071422954+1071469072+1071440658
6676.27+1071369551+1071285839+1071205041+1071133424+1071078344+1071049566
6670.49+1071050586+1071070840+1071088836+1071085630+1071057362+1071019039
6664.70+1070994997+1071001845+1071034776+1071066979+1071065376+1071015979
6658.91+1070940136+1070889574+1070922505+1071075503+1071346091+1071692158
6653.13+1072044928+1072331836+1072505088+1072562280+1072543483+1072501591
6647.34+1072462977+1072409209+1072294752+1072084562+1071784176+1071439347
6641.55+1071112150+1070851470+1070677999+1070586710+1070559025+1070572722
6635.77+1070606382+1070641280+1070668091+1070699200+1070773878+1070942832
6629.98+1071236005+1071635039+1072076402+1072486218+1072821357+1073083275
6624.19+1073298711+1073485515+1073636108+1073726523+1073741823+1073693301
6618.40+1073612284+1073525658+1073434515+1073314448+1073140832+1072916507
6612.62+1072676956+1072466110+1072304879+1072181388+1072068825+1071950725
6606.83+1071826432+1071694708+1071536319+1071318041+1071017218+1070645505
6601.04+1070251790+1069900186+1069636738+1069466764+1069357917+1069270781
6595.26+1069194792+1069164484+1069237267+1069448623+1069779099+1070158170
6589.47+1070502780+1070759380+1070923598+1071029385+1071123807+1071243874
6583.68+1071406562+1071609831+1071838672+1072068971+1072265318+1072378828
6577.90+1072354421+1072153265+1071780168+1071292906+1070780508+1070321878
6572.11+1069954974+1069679359+1069486217+1069387132+1069417149+1069610947
6566.32+1069973188+1070463802+1071007309+1071517813+1071926828+1072201496
6560.53+1072348083+1072398864+1072391214+1072349904+1072282002+1072182481
6554.75+1072047988+1071889380+1071739223+1071645530+1071651286+1071769021
6548.96+1071970760+1072205649+1072434709+1072653788+1072884378+1073139520
6543.17+1073396557+1073600482+1073694612+1073652064+1073484713+1073227749
6537.39+1072915852+1072569639+1072200622+1071823882+1071463390+1071141292
6531.60+1070861378+1070605143+1070349563+1070091288+1069855452+1069678557
6525.81+1069582241+1069560603+1069593680+1069671417+1069809480+1070042474
6520.03+1070399907+1070878281+1071426160+1071951016+1072348666+1072540205
6514.24+1072499770+1072258178+1071885009+1071461787+1071053063+1070685066
6508.45+1070340456+1069977851+1069570293+1069137745+1068747819+1068479635
6502.66+1068375086+1068410422+1068507393+1068575368+1068561234+1068476939
6496.88+1068389366+1068377272+1068481092+1068678678+1068901181+1069075453
6491.09+1069162954+1069169584+1069128493+1069071446+1069010247+1068935934
6485.30+1068829491+1068674963+1068465792+1068205477+1067908588+1067603393
6479.52+1067329745+1067126330+1067009323+1066962477+1066949581+1066946011
6473.73+1066963424+1067043857+1067224103+1067495639+1067789468+1068002791
6467.94+1068052042+1067919808+1067664884+1067385480+1067162030+1067016900
6462.16+1066917889+1066817566+1066696697+1066581584+1066526796+1066577868
6456.37+1066739318+1066965245+1067180171+1067316704+1067348615+1067295867
6450.58+1067199769+1067086988+1066952641+1066771885+1066526723+1066220800
6444.79+1065872693+1065498066+1065101437+1064683315+1064251933+1063825360
6439.01+1063421372+1063044778+1062685524+1062325978+1061951206+1061552973
6433.22+1061129314+1060683361+1060226480+1059783077+1059390090+1059086935
6427.43+1058898893+1058824871+1058840754+1058919075+1059045917+1059216911
6421.65+1059414278+1059587166+1059663447+1059589061+1059365610+1059048249
6415.86+1058704804+1058369738+1058031394+1057663033+1057270775+1056918151
6410.07+1056705192+1056712259+1056944598+1057315654+1057683360+1057918467
6404.29+1057959776+1057826595+1057585222+1057299699+1056997491+1056665194
6398.50+1056271843+1055806437+1055306716+1054859889+1054566570+1054490362
6392.71+1054626895+1054914167+1055270653+1055629032+1055946103+1056192721
6386.92+1056344189+1056379306+1056286779+1056068866+1055737807+1055306498
6381.14+1054780330+1054159522+1053455876+1052711431+1051996202+1051377288
6375.35+1050878150+1050466803+1050088242+1049719590+1049402374+1049224386
6369.56+1049262417+1049524189+1049927886+1050334715+1050619364+1050733894
6363.78+1050724350+1050685663+1050689671+1050738557+1050775568+1050737173
6357.99+1050602534+1050406041+1050213336+1050083434+1050040521+1050064928
6352.20+1050104708+1050098296+1049996443+1049775689+1049438802+1049009897
6346.42+1048526642+1048027285+1047533684+1047040010+1046521783+1045962539
6340.63+1045378013+1044815490+1044327718+1043943037+1043655327+1043437414
6334.84+1043264235+1043126755+1043028910+1042974632+1042958312+1042966107
6329.05+1042987236+1043021697+1043074809+1043141181+1043193565+1043190942
6323.27+1043105627+1042947311+1042762474+1042605105+1042500775+1042427773
6317.48+1042331748+1042160390+1041894902+1041555829+1041182149+1040797760
6311.69+1040392898+1039932155+1039383985+1038747950+1038061061+1037379272
6305.91+1036751470+1036200677+1035722084+1035294564+1034896259+1034520539
6300.12+1034182559+1033913501+1033739520+1033655517+1033613989+1033540622
6294.33+1033370867+1033082940+1032704816+1032291284+1031887441+1031502615
6288.55+1031108681+1030662218+1030137289+1029550505+1028961681+1028448044
6282.76+1028065476+1027821407+1027674384+1027558032+1027411591+1027202785
6276.97+1026935038+1026640699+1026359693+1026110670+1025869589+1025574594
6271.18+1025158949+1024592200+1023898099+1023134128+1022350997+1021561453
6265.40+1020741165+1019856180+1018897319+1017898460+1016928161+1016058184
6259.61+1015326052+1014718139+1014185925+1013685475+1013209869+1012787012
6253.82+1012443786+1012166714+1011892191+1011536580+1011044363+1010421661
6248.04+1009731858+1009056335+1008446383+1007896318+1007354632+1006762821
6242.25+1006092980+1005357715+1004590466+1003815421+1003031197+1002214988
6236.46+1001338600+1000385641+999362448+998302827+997261638+996296293+995444676
6229.71+994711961+994075197+993501236+992965160+992458080+991979488+991521878
6222.96+991057128+990536497+989910297+989156162+988294200+987373079+986436949
6216.21+985501183+984558059+983603570+982654690+981738377+980862936+980001994
6209.46+979109869+978156473+977152514+976144183+975181752+974282852+973416300
6202.70+972516452+971519560+970399833+969182988+967928695+966691159+965484222
6195.95+964271530+962988022+961578545+960028674+958372797+956674737+954996930
6189.20+953371362+951787686+950203135+948571155+946872294+945127824+943384592
6182.45+941681286+940022350+938381700+936730705+935064191+933399790+931755935
6175.70+930111934+928394056+926768706+925294023+923852417+922224225+920292442
6168.95+918164821+916090750+914240493+912569243+910882111+909020634+906991588
6162.20+904948335+903066239+901441472+900062959+898851433+897697973+896490381
6155.44+895124180+893526880+891698188+889739813+887842927+886212915+884959277
6148.69+884028539+883214662+882256384+880952475+879245527+877222746+875052431
6141.94+872895741+870846367+868917571+867080064+865310022+863607371+861975100
6135.19+860380058+858719810+856843106+854624051+852056815+849310208+846670845
6128.44+844393504+842560077+841047071+839615301+838041606+836203661+834106130
6121.69+831869953+829708454+827852223+826430506+825375475+824446339+823374187
6114.94+822039096+820548021+819161493+818128610+817524559+817199110+816873297
6108.18+816324836+815534272+814669979+813919341+813309607+812675248+811800754
6101.43+810616549+809279710+808083265+807267056+806873268+806753784+806710143
6094.68+806650037+806628544+806744094+807002661+807299841+807537353+807746232
6087.93+808050844+808509182+808995716+809261641+809110538+808518071+807601758
6081.18+806523995+805441424+804504712+803828460+803408517+803081829+802621961
6074.43+801921011+801097007+800403342+800012687+799847813+799597844+798907531
6067.67+797606173+795817115+793893346+792227415+791057635+790387940+790038813
6060.92+789775147+789423032+788926444+788322393+787672443+786981474+786166431
6054.17+785104187+783729026+782106080+780403721+778790902+777353813+776110740
6047.42+775084341+774333412+773885491+773642443+773383876+772903972+772153844
6040.67+771259170+770381106+769580853+768814843+768056628+767383509+766919925
6033.92+766685619+766518414+766164624+765458356+764437931+763312666+762316357
6027.17+761561348+760975074+760353610+759496894+758329518+756920333+755393557
6020.41+753812140+752155389+750387095+748521246+746588589+744560708+742341361
6013.66+739858566+737170900+734465602+731944338+729691988+727618135+725492845
6006.91+723048591+720112485+716710535+713072313+709493833+706149877+703004965
6000.16+699906024+696761840+693632738+690671058+687998400+685663212+683692013
5993.41+682136897+681030210+680285911+679692278+679038394+678291180+677642322
5986.66+677352209+677522182+677992979+678476016+678789152+678994243+679325520
5979.91+680007163+681120261+682603760+684333804+686202494+688154531+690182922
5973.15+692297720+694483699+696692700+698899807+701170954+703659141+706492520
5966.40+709652368+712953922+716154351+719082297+721688292+724020202+726176455
5959.65+728279597+730452825+732785828+735332882+738122038+741150235+744338060
5952.90+747506942+750449970+753066675+755428237+757687800+759928858+762115638
5946.15+764187743+766180070+768213779+770379941+772648392+774900743+777030914
5939.40+778999781+780808947+782454770+783930109+785261994+786523354+787804895
5932.64+789165996+790610079+792093505+793552816+794931110+796196186+797349646
5925.89+798433674+799524040+800700232+801990953+803325023+804531814+805421316
5919.14+805898160+806031414+806021579+806086129+806346736+806785039+807287893
5912.39+807722116+808000937+808102499+808060315+807941705+807835699+807835918
5905.64+808005017+808331340+808706477+808948797+808870913+808355455+807401694
5898.89+806129114+804741203+803450700+802398656+801597966+800944664+800293184
5892.14+799544877+798698798+797838803+797081171+796515515+796162745+795954813
5885.38+795748921+795369705+794674875+793620645+792288323+790869302+790093164
5878.63+789156524+788291721+787465895+786636427+785768199+784843143+783863518
5871.88+782852201+781846566+780883698+779983923+779142288+778337809+777553293
5865.13+776791946+776077663+775438714+774891490+774436503+774067341+773779413
5858.38+773569077+773425186+773325373+773243992+773164506+773083344+773002110
5851.63+772917232+772818658+772696113+772546467+772373943+772187285+771999608
5844.88+771830945+771709348+771665999+771727052+771907445+772207831+772614296
5838.12+773098936+773623282+774143840+774618352+775010173+775294167+775464359
5831.37+775542534+775577651+775632074+775760593+775993077+776330547+776753113
5824.62+777231706+777738275+778252786+778767078+779285815+779820507+780380116
5817.87+780961435+781544941+782099013+782590865+783000172+783328025+783598759
5811.12+783852517+784135928+784494016+784964449+785569739+786306169+787134472
5804.37+787980697+788752901+789369774+789789645+790029196+790163689+790309474
5797.61+790594196+791121821+791942765+793038232+794326622+795691365+797019971
5790.86+798237545+799321573+800295151+801207457+802112040+803048097+804027795
5784.11+805034595+806034037+806995885+807911324+808795580+809674663+810570285
5777.36+811495414+812460613+813481402+814579346+815776447+817090118+818530485
5770.61+820099008+821785557+823564488+825394345+827220778+828985283+830637663
5763.86+832148556+833520876+834791052+836018169+837263501+838570979+839958453
5757.11+841421990+842945997+844509929+846088505+847653311+849182054+850671818
5750.35+852142130+853621185+855122970+856637142+858139365+859612736+861059078
5743.60+862493035+863929250+865374937+866828856+868281172+869709373+871080600
5736.85+872360830+873528934+874581197+875529931+876402239+877245040+878124123
5730.10+879104258+880218303+881448408+882737963+884023147+885255438+886402560
5723.35+887441781+888365890+889201186+890010983+890871051+891828018+892876711
5716.60+893969700+895047608+896062714+896987260+897814324+898562849+899278443
5709.84+900020775+900837931+901741859+902704654+903674880+904601903+905453811
5703.09+906224193+906931919+907616039+908325003+909100048+909958367+910885244
5696.34+911841555+912782493+913676002+914512028+915299021+916054613+916796581
5689.59+917537310+918281318+919023942+919752796+920451487+921105445+921704615
5682.84+922241638+922707117+923086625+923363988+923531849+923603103+923614104
5676.09+923617164+923664302+923793549+924022026+924344998+924736309+925154212
5669.34+925554411+925910387+926225417+926527115+926847245+927204605+927601089
5662.58+928026059+928460428+928877020+929245527+929545622+929776139+929951431
5655.83+930085414+930179398+930225079+930216191+930158780+930071134+929979554
5649.08+929912089+929890305+929920759+929991721+930079513+930159654+930212329
5642.33+930220489+930168834+930051390+929882436+929696726+929533528+929416521
5635.58+929345632+929304541+929271537+929220975+929119267+928927801+928620056
5628.83+928204411+927733032+927285986+926940064+926740001+926689439+926757559
5622.08+926893873+927041699+927151930+927197611+927183841+927142969+927116012
5615.32+927131530+927195207+927291814+927391919+927455814+927440587+927313088
5608.57+927067417+926731550+926357433+925999636+925696845+925465381+925300872
5601.82+925183865+925086674+924983656+924863880+924738349+924635767+924586735
5595.07+924606187+924684289+924789931+924883478+924930835+924913495+924833280
5588.32+924711319+924579813+924470310+924402627+924382082+924404448+924463171
5581.57+924551982+924661340+924776307+924877431+924945187+924964130+924926099
5574.81+924835029+924710590+924584622+924489836+924447361+924461495+924523568
5568.06+924618500+924728513+924836049+924929669+925009884+925089516+925185467
5561.31+925311654+925476528+925685771+925942152+926242466+926574253+926917770
5554.56+927248173+927535300+927743377+927838527+927803046+927646988+927404158
5547.81+927116376+926815480+926515968+926217476+925911188+925586177+925234062
5541.06+924852150+924446049+924029603+923624304+923258201+922961895+922761977
5534.31+922670834+922680233+922761613+922873739+922973698+923027538+923017411
5527.55+922947324+922846126+922764964+922764309+922893410+923169681+923573814
5520.80+924062753+924593000+925137747+925687593+926242101+926803094+927375453
5514.05+927968576+928592662+929248733+929924037+930595772+931240841+931842415
5507.30+932393208+932894823+933360011+933812448+934282079+934795279+935365670
5500.55+935988518+936641164+937286598+937880668+938383303+938774905+939071211
5493.80+939329050+939634244+940073640+940704138+941532150+942515855+943584437
5487.05+944660451+945675120+946576424+947336752+947961057+948486861+948966401
5480.29+949438509+949910763+950366916+950789847+951179555+951548134+951905057
5473.54+952251270+952588959+952930873+953295883+953691419+954105898+954519285
5466.79+954921014+955316114+955714419+956118188+956520427+956911374+957282504
5460.04+957622888+957917519+958153791+958331196+958464086+958575629+958689795
5453.29+958828440+959010872+959250496+959548333+959891923+960261887+960640083
5446.54+961011650+961363109+961683093+961968398+962228495+962481015+962739655
5439.78+963004487+963262835+963498380+963699244+963860548+963983165+964074381
5433.03+964148257+964224538+964321801+964450975+964612934+964798718+964989820
5426.28+965158482+965273085+965310533+965268422+965166569+965035573+964901664
5419.53+964781378+964686592+964628744+964614391+964635520+964667868+964682731
5412.78+964663205+964611769+964543357+964471739+964399903+964319615+964217398
5406.03+964082031+963908269+963697496+963457507+963203822+962961939+962766976
5399.28+962654777+962649531+962753279+962944454+963186701+963439439+963667042
5392.52+963841970+963946591+963974204+963931073+963838764+963732540+963652106
5385.77+963625732+963656915+963722850+963786963+963816033+963789513+963700847
5379.02+963555572+963372047+963181746+963022337+962924272+962901760+962952322
5372.27+963064666+963224877+963415542+963612472+963787473+963918614+964001670
5365.52+964053617+964104325+964181115+964295063+964436549+964580659+964696355
5358.77+964754348+964731909+964617816+964419210+964167783+963915482+963718988
5352.02+963617864+963620559+963706311+963840440+963989649+964130043+964244427
5345.26+964319615+964347738+964331709+964286976+964235102+964193865+964170551
5338.51+964164213+964171426+964189494+964212662+964226942+964211205+964146144
5331.76+964025640+963861204+963676586+963495538+963333142+963193039+963070641
5325.01+962957131+962842528+962718818+962583305+962439705+962294284+962149592
5318.26+962001184+961839443+961655991+961447258+961214773+960963711+960702521
5311.51+960443153+960199230+959982993+959803621+959667161+959576091+959526840
5304.75+959507315+959496896+959471396+959408230+959289329+959102890+958845926
5298.00+958527544+958169164+957799710+957447304+957133003+956868024+956652151
5291.25+956472196+956302004+956107405+955857435+955534245+955135940+954670753
5284.50+954151361+953594302+953023328+952467799+951952632+951488028+951068085
5277.75+950678522+950304114+949930799+949546045+949144024+948732459+948331240
5271.00+947956176+947602532+947241165+946832878+946346854+945770343+945110265
5264.25+944392996+943664360+942983665+942405987+941962876+941652508+941444941
5257.49+941295440+941157013+940988569+940761039+940461236+940094040+939680508
5250.74+939253935+938852497+938509053+938240213+938041170+937888973+937752076
5243.99+937599151+937405135+937154728+936845016+936482993+936077986+935632105
5237.24+935137994+934584870+933967705+933293566+932582853+931868570+931193339
5230.49+930598686+930109165+929716907+929379291+929031767+928609274+928062487
5223.74+927365545+926514147+925521407+924413555+923224469+921989337+920738832
5216.99+919496051+918277967+917096894+915960046+914866401+913803865+912751602
5210.23+911687610+910597608+909481887+908356695+907251685+906202263+905240124
5203.48+904383772+903635319+902983547+902411772+901905858+901460706+901082218
5196.73+900787077+900598234+900539148+900628834+900878731+901289203+901846480
5189.98+902523096+903284589+904100506+904952342+905831862+906736372+907667402
5183.23+908633768+909652662+910740989+911901516+913117049+914357354+915591174
5176.48+916792792+917941517+919021028+920025715+920968475+921881437+922805472
5169.72+923775189+924807708+925900551+927035652+928184740+929314813+930393304
5162.97+931395806+932313212+933154993+933945848+934715355+935486539+936270472
5156.22+937067810+937872508+938674145+939458952+940212650+940927734+941607702
5149.47+942262825+942900463+943517045+944098584+944628904+945098463+945507550
5142.72+945866440+946194731+946518139+946863259+947247066+947669851+948115294
5135.97+948559717+948985270+949388165+949776635+950161607+950547162+950927909
5129.22+951294085+951637383+951953288+952239030+952490384+952701084+952863772
5122.46+952970143+953012399+952985734+952893206+952750117+952583057+952424012
5115.71+952300521+952226499+952198303+952197502+952201728+952196045+952178924
5108.96+952158014+952142568+952138853+952151603+952185408+952241580+952312688
5102.21+952381464+952428894+952445286+952436033+952417601+952408931+952424814
5095.46+952474793+952563750+952690593+952845558+953011233+953169623+953313223
5088.71+953450629+953602462+953789265+954021822+954298895+954612104+954950448
5081.95+955300887+955648557+955979470+956285102+956565015+956823946+957068088
5075.20+957302903+957534295+957768455+958010775+958263294+958523100+958781594
5068.45+959023549+959228567+959377776+959461852+959485968+959468774+959435843
5061.70+959413986+959426080+959484948+959587092+959710584+959820014+959877279
5054.95+959852653+959729890+959508553+959203213+958842574+958463940+958103302
5048.20+957783390+957506026+957254090+956999166+956710509+956361018+955929927
5041.45+955406528+954794536+954113257+953391762+952658245+951932742+951228077
5034.69+950554448+949922493+949338987+948802401+948303409+947832029+947381923
5027.94+946948938+946525571+946100600+945665503+945223557+944790718+944387021
5021.19+944026674+943714704+943452276+943243761+943097393+943018053+943000494
5014.44+943030074+943090690+943174038+943280044+943411112+943566004+943741005
5007.69+943935313+944152279+944391976+944643475+944884265+945092707+945260859
5000.94+945396882+945514472+945619385+945704481+945756865+945764952+945720946
4994.19+945619822+945461505+945257289+945031144+944811409+944617611+944453029
4987.43+944309867+944179381+944058003+943946168+943844097+943749821+943658386
4980.68+943560395+943440837+943282011+943071165+942807134+942502303+942178603
4973.93+941862116+941578268+941347313+941178797+941067035+940990245+940915130
4967.18+940804534+940626547+940361277+940005520+939573191+939090737+938588903
4960.43+938093044+937616637+937159609+936712563+936261729+935792316+935289827
4953.68+934740928+934138115+933483429+932787069+932060328+931308379+930531076
4946.92+929731114+928920151+928117203+927340701+926604416+925920441+925304514
4940.17+924774121+924338222+923988439+923699564+923443402+923203850+922984990
4933.42+922806711+922693784+922668066+922745220+922935157+923239113+923645796
4926.67+924129125+924654855+925190130+925712218+926209608+926679093+927123443
4919.92+927550162+927969960+928391871+928818080+929240646+929643104+930004106
4913.17+930302671+930524810+930669430+930751903+930799478+930840350+930892515
4906.42+930959033+931029922+931086750+931106858+931066860+930947522+930741557
4899.66+930456762+930112735+929731405+929329020+928914978+928496346+928081794
4892.91+927680284+927296040+926926732+926565292+926240061+925940331+925568691
4886.16+925131699+924692085+924328896+924084100+923927531+923763751+923484930
4879.41+923040725+922480315+921933602+921533767+921335816+921286056+921259609
4872.66+921137647+920869172+920485001+920064839+919681907+919359736+919064232
4865.91+918725377+918280808+917705026+917018137+916270195+915520795+914819918
4859.16+914187089+913597245+912976728+912230389+911288649+910154715+908916304
4852.40+907706162+906628837+905699337+904835189+903912465+902847015+901641608
4845.65+900370485+899116630+897913846+896731972+895506821+894185355+892751981
4838.90+891230378+889664115+888094500+886540914+884993083+883416182+881770505
4832.15+880031718+878195158+876263448+874221433+872030281+869646061+867053544
4825.40+864292147+861449879+858629468+855900784+853274243+850702709+848120247
4818.65+845484599+842806040+840136733+837549389+835120726+832932853+831074218
4811.89+829620954+828601914+827979212+827664400+827562838+827611870+827791607
4805.14+828106783+828562571+829143819+829808632+830494573+831139351+831703113
4798.39+832170485+832534694+832776941+832864805+832772569+832499577+832069944
4791.64+831510772+830832553+830026181+829080798+828005003+826836097+825622312
4784.89+824383829+823081523+821624836+819923570+817955941+815798376+813593382
4778.14+811478147+809523778+807720878+806011452+804336705+802665820+801001055
4771.39+799363392+797775053+796258259+794838947+793551358+792425875+791470657
4764.63+790664284+789968143+789350540+788807834+788368001+788079490+787994321
4757.88+788139451+788494625+788983345+789501134+789962970+790343280+790672808
4751.13+790999641+791346656+791701976+792038790+792341945+792613626+792863741
4744.38+793096226+793303866+793467792+793563963+793574891+793507280+793394790
4737.63+793276545+793164055+793029853+792831612+792549877+792200021+791805650
4730.88+791364287+790842563+790199898+789406713+788441513+787283609+785932781
4724.13+784442725+782922726+781487530+780185444+778970129+777746799+776450177
4717.37+775092064+773748449+772513754+771457339+770609219+769957593+769453355
4710.62+769019569+768573616+768051746+767430720+766726200+765975562+765212903
4703.87+764449661+763667768+762827881+761890148+760836647+759684790+758479383
4697.12+757266545+756062815+754844075+753559256+752161363+750631017+748979075
4690.37+747230161+745404748+743511797+741552911+739528892+737445276+735314668
4683.62+733156375+730989630+728824853+726653664+724450564+722187358+719852679
4676.86+717463796+715060123+712682022+710353610+708082680+705880236+703776877
4670.11+701815149+700018442+698367373+696810144+695308868+693877243+692581932
4663.36+691502275+690685411+690128279+689791538+689625061+689586229+689653840
4656.61+689837875+690175490+690706321+691437725+692323511+693282591+694242471
4649.86+695173210+696090033+697023831+697985680+698955469+699890506+700746348
4643.11+701497423+702145261+702716090+703243933+703743290+704190627+704528462
4636.36+704695229+704657927+704424350+704028668+703509421+702897137+702217170
4629.60+701493052+700743507+699979828+699204783+698416551+697605079+696749455
4622.85+695826439+694829984+693781801+692721160+691681283+690679947+689731723
4616.10+688859124+688078979+687375115+686691432+685966367+685184109+684393182
4609.35+683670302+683064065+682560410+682098137+681612405+681073050+680494280
4602.60+679915729+679377321+678902007+678491899+678135632+677811495+677486556
4595.85+677121837+676685574+676167931+675586246+674972214+674354684+673747573
4589.09+673147092+672529563+671855861+671079796+670167928+669115811+667951204
4582.34+666718986+665463163+664210691+662962664+661695694+660373426+658967810
4575.59+657474257+655909815+654294665+652635656+650931111+649184674+647410479
4568.84+645622368+643818229+641987352+640131630+638280353+636475995+634738520
4562.09+633037909+631305752+629473345+627516280+625468291+623405294+621409179
4555.34+619536628+617798569+616159814+614557705+612933229+611261616+609558892
4548.59+607858063+606173736+604484091+602744502+600918324+598993280+596973414
4541.83+594855993+592619306+590233009+587680126+584971258+582139919+579223702
4535.08+576247707+573225047+570168837+567097145+564017694+560908699+557720474
4528.33+554408429+550972820+547462388+543938805+540430412+536920599+533373885
4521.58+529772054+526127020+522466795+518818519+515200733+511624001+508087851
4514.83+504576508+501065420+497534697+493983210+490427534+486887996+483371735
4508.08+479868734+476362017+472844336+469326399+465829700+462372781+458963619
4501.33+455602177+452286162+449004680+445731322+442428384+439071205+435666487
4494.57+432243847+428822445+425386143+421899098+418345316+414749496+411153021
4487.82+407566235+403947502+400233364+396396462+392482297+388590900+384822010
4481.07+381221236+377766211+374393185+371045040+367702286+364385652+361135425
4474.32+357985049+354946069+352007340+349149554+346366190+343682057+341153690
4467.57+338844293+336788873+334975481+333356324+331877014+330494968+329175541
4460.82+327884383+326595264+325309971+324059904+322878321+321762200+320664839
4454.06+319529739+318337519+317121512+315940840+314837833+313816061+312851408
4447.31+311918520+311009602+310136821+309324401+308594090+307952408+307385878
4440.56+306872060+306401918+306000153+305724647+305643776+305801291+306191764
4433.81+306759606+307421979+308101800+308754046+309373870+309990052+310650020
4427.06+311402334+312276208+313263082+314314325+315365349+316378233+317371227
4420.31+318406696+319542962+320786837+322087649+323375419+324611753+325815484
4413.56+327051709+328399659+329917691+331619431+333464552+335367338+337224262
4406.80+338952157+340516781+341936786+343264736+344557388+345853428+347165569
4400.05+348483283+349785880+351057549+352301169+353542129+354818716+356164918
4393.30+357596616+359109330+360690893+362333911+364043264+365831557+367710410
4386.55+369684413+371752219+373909820+376151971+378469383+380845443+383261575
4379.80+385707140+388186548+390711708+393286193+395890767+398488129+401041849
4373.05+403539434+405999826+408463460+410971390+413543143+416163381+418784129
4366.30+421344152+423794781+426115799+428311067+430385903+432330436+434119931
4359.54+435734899+437180003+438484421+439682578+440790940+441797304+442672343
4352.79+443392200+443959021+444405375+444785029+445158453+445579198+446086496
4346.04+446700820+447422789+448238050+449122270+450048419+450991324+451936853
4339.29+452893783+453895702+454980641+456156213+457376117+458557773+459632730
4332.54+460591956+461490127+462407788+463404461+464497487+465673496+466907754
4325.79+468173558+469439618+470670305+471835349+472919560+473922644+474846243
4319.03+475681394+476409337+477015210+477498902+477872363+478140948+478282726
4312.28+478243347+477952870+477354938+476432542+475216389+473774491+472191799
4305.53+470552023+468926090+467371848+465941134+464691977+463698801+463049178
4298.78+462820337+463046992+463704083+464721994+466022696+467550674+469273396
4292.03+471159353+473159147+475211289+477266236+479305336+481342033+483410749
4285.28+485553852+487811048+490204157+492724582+495334329+497990158+500669082
4278.53+503372194+506100369+508824937+511484299+514013030+516374775+518574596
4271.77+520643313+522612763+524501743+526310873+528023140+529608783+531035600
4265.02+532285704+533362555+534281200+535050671+535669184+536140382+536494609
4258.27+536791571+537098150+537453543+537850354+538241082+538561067+538755775
4251.52+538801493+538711369+538529921+538315396+538122727+537992970+537950349
4244.77+538002988+538141160+538339438+538568243+538810090+539070332+539371338
4238.02+539738715+540190970+540740015+541393353+542147124+542979689+543852507
4231.27+544727109+545582187+546414059+547223273+548000868+548728374+549388998
4224.51+549976729+550498562+550974933+551434182+551901992+552385794+552869377
4217.76+553327570+553749299+554145345+554528460+554884872+555172327+555351007
4211.01+555414209+555390276+555310353+555176479+554960133+554625468+554155982
4204.26+553561584+552870033+552118120+551347374+550598047+549893455+549223432
4197.51+548541206+547786452+546923543+545968252+544982871+544037197+543167621
4190.76+542361176+541574620+540770360+539941838+539118854+538355794+537712000
4184.00+537232752+536934151+536800751+536798310+536892368+537057678+537272276
4177.25+537502794+537700489+537809191+537783873+537606504+537290673+536870401
4170.50+536379022+535828156+535199735+534453359+533543166+532429121+531083248
4163.75+529496293+527682901+525678371+523521644+521235561+518819174+516259990
4157.00+513550612+510692461+507686449+504528678+501220968+497785577+494267677
4150.25+490715353+487157491+483598900+480035939+476477640+472951398+469496008
4143.50+466155040+462979272+460033221+457387009+455091564+453155082+451539458
4136.74+450182474+449028358+448043342+447213145+446530519+445987448+445571220
4129.99+445263840+445043013+444890597+444801531+444783754+444841602+444959228
4123.24+445102172+445244242+445395965+445607685+445941585+446437663+447103752
4116.49+447929176+448906725+450038765+451332729+452799871+454463288+456362068
4109.74+458542509+461036670+463848265+466955402+470326570+473933500+477754518
4102.99+481771593+485968950+490331509+494839162+499456353+504121302+508745014
4096.24+513224398+517469695+521433256+525126230+528606354+531939564+535160065
4089.48+538256455+541192379+543945544+546533543+549011129+551448098+553903899
4082.73+556409571+558958192+561509253+564008040+566415903+568732840+570994335
4075.98+573244828+575511567+577799472+580107266+582441289+584810392+587209548
4069.23+589613840+591996531+594352556+596704246+599077866+601473307+603857928
4062.48+606189765+608443755+610617275+612707448+614690303+616518995+618141795
4055.73+619521692+620643168+621512780+622159598+622631342+622977628+623226286
4048.97+623367263+623365515+623193137+622858945+622408256+621903800+621401456
4042.22+620941442+620553774+620266720+620107602+620098058+620248142+620558801
4035.47+621026975+621646253+622405634+623283114+624246347+625258903+626290328
4028.72+627321390+628344510+629360053+630372245+631383490+632391602+633387474
4021.97+634359084+635296744+636195207+637050758+637860410+638627149+639368170
4015.22+640112615+640886057+641687111+642479568+643203249+643796736+644218793
4008.47+644455430+644520636+644449310+644281303+644040368+643716449+643271079
4001.71+642658722+641853005+640853490+639674093+638329385+636831680+635196567
3994.96+633445904+631603880+629690821+627726325+625732322+623735916+621768579
3988.21+619868852+618081907+616455027+615025952+613813551+612821686+612052980
3981.46+611515738+611218048+611152659+611291851+611594860+612021579+612537766
3974.71+613113038+613713520+614298482+614825087+615256251+615570844+615767701
3967.96+615860812+615868024+615806971+615702932+615605523+615593575+615760634
3961.20+616182399+616886846+617848986+619010897+620315679+621738343+623294188
3954.45+625028094+626991278+629217619+631708210+634429901+637326592+640342476
3947.70+643440396+646601265+649800746+652986604+656081465+659017207+661774597
3940.95+664389772+666919195+669392081+671787668+674054298+676145345+678045873
3934.20+679771182+681353692+682825753+684213955+685538190+686815798+688064044
3927.45+689304275+690560681+691853151+693180737+694514298+695803635+697004452
3920.70+698105819+699140305+700170055+701260568+702461530+703803688+705299791
3913.94+706947070+708726948+710609845+712561518+714549619+716547483+718538571
3907.19+720518221+722491605+724458724+726406754+728314568+730169050+731974209
3900.44+733739953+735459652+737099136+738611195+739964572+741167502+742269015
3893.69+743337233+744424977+745543393+746660862+747730902+748727867+749664361
3886.94+750575137+751488244+752406014+753311909+754186839+755017328+755791498
3880.19+756493541+757105679+757613414+758004142+758257973+758342486+758220015
3873.44+757866444+757285707+756506072+755558868+754457573+753197160+751773622
3866.68+750199563+748503834+746717617+744870274+743004499+741184040+739474978
3859.93+737907185+736454796+735073077+733764724+732624014+731809919+731466037
3853.18+731642714+732283047+733274548+734520244+735976713+737642352+739520295
3846.43+741591598+743816336+746150941+748559350+751011254+753476272+755927739
3839.68+758351958+760747180+763111073+765424769+767657521+769784122+771799472
3832.93+773715882+775543190+777278771+778911917+780436069+781852322+783158415
3826.17+784334825+785352918+786205045+786928143+787592665+788254200+788910343
3819.42+789506963+789995245+790384516+790743187+791144698+791607481+792084617
3812.67+792503977+792821776+793046975+793229917+793424079+793650152+793881762
3805.92+794065432+794163715+794186009+794175445+794160437+794114683+793968970
3799.17+793667127+793215855+792684952+792157764+791675602+791215150+790712734
3792.42+790104967+789361177+788489671+787519809+786477236+785371642+784198875
3785.67+782952159+781628944+780229522+778754328+777202126+775576776+773883452
3778.91+772118728+770251641+768218369+765938988+763355142+760463550+757321843
3772.16+754017448+750620745+747153589+743597840+739936012+736194189+732457683
3765.41+728849697+725490805+722465304+719816834+717572862+715768723+714446673
3758.66+713624491+713266621+713285782+713584420+714098930+714821737+715785480
3751.91+717027897+718554235+720314806+722209506+724127665+725999779+727826212
3745.16+729652645+731508950+733359061+735103239+736625352+737845475+738741753
3738.41+739345586+739722471+739950292+740102853+740238876+740396173+740590480
3731.65+740815169+741045395+741251869+741421478+741573238+741753266+742011395
3724.90+742376259+742842612+743382186+743963141+744564642+745174522+745772745
3718.15+746316325+746742097+746992650+747044887+746918919+746660644+746314285
3711.40+745912119+745478405+745035804+744600051+744171656+743742751+743323245
3704.65+742962679+742744402+742747535+743004790+743487099+744127942+744866777
3697.90+745680582+746581376+747590945+748710527+749909522+751140501+752366307
3691.14+753580092+754803276+756060046+757349674+758632964+759848352+760940904
3684.39+761885194+762685957+763363083+763934567+764411849+764804762+765129847
3677.64+765412675+765675540+765924053+766140217+766300720+766405924+766493351
3670.89+766618446+766813846+767067094+767338192+767598653+767853140+768050144
3664.14+768347106+768639041+768884056+769050533+769134682+769163678+769188960
3657.39+769264293+769413284+769605114+769759642+769791918+769665658+769420497
3650.64+769152386+768959827+768893017+768935128+769022920+769092425+769111586
3643.88+769083974+769022119+768923617+768765883+768529028+768213633+767843086
3637.13+767445801+767035256+766600742+766115446+765557950+764936851+764301909
3630.38+763726708+763265528+762910646+762584905+762175745+761587795+760780256
3623.63+759770469+758614823+757380565+756125252+754883199+753660817+752437488
3616.88+751175035+749833606+748391562+746857428+745266175+743660205+742068660
3610.13+740500357+738955367+737437772+735958207+734523887+733129564+731761615
3603.38+730415232+729111396+727896591+726817226+725888018+725073339+724306891
3596.62+723534834+722749662+721982632+721261136+720568856+719844738+719024085
3589.87+718081180+717042323+715963686+714891898+713840946+712792764+711714564
3583.12+710578517+709368083+708073646+706683913+705189778+703597796+701937694
3576.37+700254496+698585651+696945511+695327010+693716449+692105379+690495111
3569.62+688897446+687339051+685857447+684488113+683242855+682102217+681032760
3562.87+680012919+679047501+678156906+677351407+676616288+675917815+675227284
3556.11+674540322+673878860+673274518+672748569+672299264+671905258+671540175
3549.36+671187842+670848478+670530315+670235538+669953730+669668498+669369205
3542.61+669058036+668739581+668409979+668060197+667696862+667358227+667103303
3535.86+666974930+666967134+667027314+667089460+667109350+667073286+666984547
3529.11+666846921+666666165+666455392+666230412+665992099+665712696+665347249
3522.36+664858893+664245079+663536261+662776808+661997756+661201656+660366504
3515.61+659460173+658463354+657387267+656275845+655187591+654164471+653212604
3508.85+652307730+651423036+650553789+649721843+648962317+648310618+647798365
3502.10+647447854+647259958+647202984+647219377+647249685+647255441+647221781
3495.35+647142149+647011955+646835570+646639150+646464659+646346632+646288274
3488.60+646256509+646197641+646059943+645815583+645473960+645080245+644689881
3481.85+644334925+644003867+643655468+643257382+642811647+642344930+641875444
3475.10+641393573+640871850+640289291+639645169+638951651+638221194+637463999
3468.35+636691796+635914565+635128883+634310271+633425286+632455059+631410811
3461.59+630330061+629254485+628210673+627205039+626228765+625262254+624276582
3454.84+623236486+622110056+620881408+619556299+618158406+616716362+615255595
3448.09+613794754+612348412+610926586+609529131+608141183+606730249+605257278
3441.34+603696333+602051093+600354563+598644845+596936803+595208763+593415260
3434.59+591513494+589481351+587318796+585036865+582653009+580187408+577658859
3427.84+575073155+572414959+569656184+566776432+563780510+560695704+557551557
3421.08+554358049+551100828+547757237+544316929+540788756+537187763+533514643
3414.33+529749760+525871513+521883727+517823667+513741167+509664496+505586623
3407.58+501483578+497347893+493206635+489107634+485091652+481174500+477353809
3400.83+473628560+470013178+466534985+463225854+460119847+457263081+454722365
3394.08+452575401+450884408+449669748+448911096+448571477+448620436+449029051
3387.33+449741257+450653745+451629873+452540539+453295840+453844120+454145672
3380.58+454151172+453802482+453045834+451844617+450180543+448052923+445474795
3373.82+442467945+439052408+435238020+431027402+426430902+421481559+416239734
3367.07+410778613+405162052+399424404+393566325+387569018+381417401+375118979
3360.32+368705262+362216758+355684868+349123580+342534462+335921847+329306027
3353.57+322726416+316233103+309873300+303678679+297662247+291824113+286163529
3346.82+280694648+275460273+270536939+266027338+262038933+258662701+255964835
3340.07+253994930+252798903+252422182+252896312+254219527+256344307+259183860
3333.31+262635225+266604414+271019430+275824390+280964125+286375176+291987074
3326.56+297724321+303498488+309197412+314689826+319851144+324590843+328858580
3319.81+332627907+335878097+338590462+340754984+342372976+343454017+344018871
3313.06+344107392+343777462+343085291+342062426+340713456+339040458+337072284
3306.31+334875304+332542155+330174473+327873564+325738584+323866835+322353647
3299.56+321289800+320753250+320797328+321445421+322700042+324558277+327017867
3292.81+330066427+333666363+337756440+342270103+347154567+352373224+357892193
3286.05+363660623+369596949+375584713+381483227+387149621+392465067+397349349
3279.30+401758245+405670297+409076071+411972362+414361646+416251391+417655477
3272.55+418596270+419104114+419210375+418943211+418326629+417384561+416139411
3265.80+414603820+412777606+410656141+408246567+405575329+402681916+399604359
3259.05+396372165+393007846+389533332+385973102+382354733+378709480+375075447
3252.30+371505929+368077787+364894990+362077894+359737351+357946398+356726493
3245.55+356058365+355907444+356246662+357063162+358349366+360089793+362250272
3238.79+364776708+367599013+370635005+373790154+376955503+380009928+382832233
3232.04+385318525+387398389+389038492+390235957+391004008+391358162+391307454
3225.29+390856875+390018554+388823056+387319777+385564451+383604327+381473500
3218.54+379198929+376804763+374305138+371691457+368931918+365989545+362846855
3211.79+359512880+356007111+352335302+348480260+344415756+340129113+335635741
3205.04+330979243+326224681+321452597+316753151+312220327+307949276+304038407
3198.28+300587316+297679132+295348479+293560332+292220360+291217002+290464470
3191.53+289916536+289549268+289337602+289248954+289252470+289328604+289466375
3184.78+289653907+289872148+290094214+290287575+290414363+290433415+290305279
3178.03+289997607+289486593+288755626+287798678+286627696+285278890+283804826
3171.28+282253462+280645871+278972344+277207529+275332592+273347223+271266030
3164.53+269107573+266886532+264609811+262275898+259874975+257394274+254825964
3157.78+252171356+249436187+246621732+243721835+240730850+237657791+234536393
3151.02+231425869+228397745+225511763+222790583+220207228+217697931+215190511
3144.27+212628230+209969979+207173465+204181004+200919758+197310860+193275499
3137.52+188736719+183625781+177895728+171533229+164561816+157040793+149068817
3130.77+140790836+132395466+124092787+116081733+108524673+101539408+95202418
3124.02+89553163+84598237+80319299+76686231+73666568+71224235+69311345+67865977
3116.30+66822689+66130450+65763810+65720106+66007692+66635890+67610506+68931081
3108.59+70584986+72542897+74762909+77203684+79834504+82629980+85552026+88536873
3100.87+91502341+94372540+97100532+99673423+102101221+104404881+106614037
3094.12+108772840+110943246+113198584+115610280+118234817+121106163+124232926
3087.37+127599112+131167711+134887395+138700873+142550925+146381633+150137946
3080.62+153766761+157222132+160470355+163490137+166269038+168800501+171083251
3073.86+173121677+174922847+176493045+177838318+178970686+179913518+180699127
3067.11+181357820+181906701+182344786+182657412+182825473+182834380+182680034
3060.36+182369065+181914406+181330645+180632992+179841391+178982707+178086885
3053.61+177177511+176263621+175340241+174395368+173417528+172400054+171341836
3046.86+170247608+169131122+168016294+166934488+165916432+164983762+164145624
3040.11+163402363+162751884+162191419+161714047+161303393+160933939+160576269
3033.36+160202517+159788129+159311485+158756229+158115732+157395803+156612052
3026.60+155782128+154917816+154021302+153086866+152108043+151085168+150027742
3019.85+148948941+147856143+146745996+145608273+144432674+143212186+141940025
3013.10+140609816+139224190+137806198+136402204+135069089+133855414+132790711
3006.35+131887476+131147985+130567020+130128425+129804616+129563334+129377706
2999.60+129231665+129117937+129033114+128974073+128933228+128891126+128812104
2992.85+128653979+128391341+128037114+127638308+127242845+126859357+126441972
2986.09+125912890+125203198+124281612+123152841+121834817+120335836+118647611
2979.34+116752101+114632904+112282944+109707185+106924313+103967825+100883593
2972.59+97721859+94528716+91346173+88222945+85224792+82428050+79893846+77643535
2964.88+75659518+73914161+72401597+71143939+70168598+69481104+69057359+68858443
2957.16+68850483+69014811+69348178+69859579+70567573+71495393+72662490+74074481
2949.44+75715367+77545716+79509165+81549149+83630743+85753136+87941173+90218659
2941.73+92582434+94997546+97416574+99806868+102164797+104508664+106858715
2934.98+109217272+111561458+113849736+116040678+118115487+120092478+122023824
2928.22+123973011+125984353+128062159+130171356+132258824+134279938+136213361
2921.47+138056933+139810537+141464119+143000220+144409032+145700746+146903120
2914.72+148045087+149139397+150176159+151130184+151974488+152692668+153284653
2907.97+153765668+154160330+154494686+154789535+155055988+155290258+155469885
2901.22+155555290+155504109+155294939+154944500+154502900+154026803+153551124
2894.47+153082386+152617317+152167575+151768569+151466261+151298819+151289967
2887.72+151457801+151825597+152421552+153268624+154377096+155748724+157386295
2880.96+159296877+161483220+163932702+166615760+169495604+172539610+175720368
2874.21+179009682+182373783+185776351+189187389+192590322+195982090+199366918
2867.46+202744843+206100438+209398713+212594315+215649542+218547326+221289107
2860.71+223882971+226335330+228656439+230869174+233006376+235093033+237126615
2853.96+239072751+240880314+242503824+243916835+245110657+246084945+246841503
2847.21+247388380+247749146+247967187+248099530+248204243+248332943+248532023
2840.45+248847399+249323260+249992954+250872220+251962568+253262069+254774564
2833.70+256510656+258483184+260703022+263176965+265904521+268875453+272067412
2826.95+275445793+278962254+282551498+286133731+289626787+292964167+296107040
2820.20+299041015+301761140+304258524+306519763+308539775+310339142+311972616
2813.45+313518844+315055856+316634687+318270200+319952414+321667487+323407804
2806.70+325165388+326919657+328636514+330279386+331819640+333234727+334496232
2799.95+335566928+336414537+337030537+337435945+337668575+337762924+337743727
2793.19+337633859+337464724+337273804+337092647+336939284+336823662+336759840
2786.44+336771533+336886974+337130423+337522899+338088519+338860285+339875573
2779.69+341164400+342735472+344567260+346606397+348773324+350973910+353110492
2772.94+355090507+356832536+358274106+359379408+360141484+360573084+360691367
2766.19+360509445+360040469+359306224+358339239+357176454+355852801+354405002
2759.44+352882452+351354730+349907113+348624260+347570977+346780524+346254028
2752.69+345971710+345907378+346035678+346328159+346742966+347220830+347696436
2745.93+348114376+348441063+348660324+348758461+348711323+348484449+348042794
2739.18+347362135+346429174+345237173+343784456+342084975+340179784+338139773
2732.43+336052296+334003943+332070885+330318073+328796761+327534272+326529075
2725.68+325759275+325204439+324862925+324752803+324900956+325333394+326072266
2718.93+327134073+328525445+330240444+332267596+334603695+337260216+340254134
2712.18+343583045+347200868+351009428+354873067+358649753+362221931+365507820
2705.42+368451358+371003476+373117509+374759725+375920288+376607578+376830591
2698.67+376589619+375888851+374756701+373250909+371439739+369378089+367100822
2691.92+364638099+362035200+359357442+356678736+354065055+351564702+349207547
2685.17+347006997+344961012+343049482+341232921+339453918+337642748+335727175
2678.42+333642794+331344508+328816323+326077621+323185046+320227993+317322013
2671.67+314604147+312231511+310379141+309228267+308945038+309653602+311417743
2664.92+314234474+318042160+322732645+328162147+334160657+340543373+347125170
2658.16+353734870+360221954+366453603+372310699+377689821+382513159+386734741
2651.41+390337592+393320654+395687353+397442787+398598433+399180409+399237273
2644.66+398848621+398126798+397205968+396214140+395242565+394331352+393475146
2637.91+392639812+391773115+390810611+389686038+388348944+386777326+384973223
2631.16+382946362+380704066+378260176+375649882+372933328+370180856+367451916
2624.41+364783993+362193043+359678738+357228910+354825237+352450561+350096867
2617.66+347771441+345500731+343333986+341347670+339643380+338336667+337539219
2610.90+337338828+337778188+338837809+340430628+342415342+344625436+346896256
2604.15+349080049+351051284+352713681+354013108+354944284+355537407+355831746
2597.40+355851672+355605017+355094004+354321691+353281158+351935467+350210340
2590.65+348008989+345240379+341843275+337794325+333107848+327835423+322071475
2583.90+315955521+309662636+303382155+297296545+291569334+286341535+281730900
2577.15+277827864+274689126+272334430+270747457+269880268+269663029+270017402
2570.39+270872861+272181214+273923607+276108748+278762555+281912476+285569896
2563.64+289715198+294291954+299210843+304358993+309609196+314828216+319889139
2556.89+324689454+329168000+333309149+337130641+340663951+343940696+346990896
2550.14+349847698+352551940+355149192+357682440+360183121+362663949+365116946
2543.39+367519964+369847065+372076903+374192685+376175358+377997638+379622114
2536.64+381004707+382098534+382865419+383297056+383442878+383430492+383459926
2529.89+383766432+384565483+385997217+388088301+390740815+393752145+396861504
2523.13+399808357+402381494+404441322+405917207+406789405+407071723+406798440
2516.38+406015891+404777881+403143934+401179001+398942387+396468408+393746353
2509.63+390719358+387310305+383461383+379166143+374474165+369473968+364272724
2502.88+358987041+353747839+348702653+344009655+339824319+336290172+333536898
2496.13+331676477+330788250+330893819+331938869+333796339+336289370+339219576
2489.38+342384524+345584916+348630999+351354839+353625331+355356031+356503553
2482.63+357063308+357071541+356611162+355808323+354813179+353767838+352779834
2475.87+351916233+351215720+350705471+350408437+350341591+350511820+350914787
2469.12+351532827+352328818+353238464+354173574+355040855+355767742+356318826
2462.37+356691996+356896431+356929143+356768386+356388076+355782823+354983881
2455.62+354055219+353075740+352125877+351286209+350642087+350277732+350258061
2448.87+350608937+351309778+352299967+353489418+354766260+356003905+357071176
2442.12+357844145+358212142+358081037+357379832+356077636+354201150+351838022
2435.36+349119974+346196981+343216396+340316681+337630508+335284501+333391914
2428.61+332038864+331271287+331092753+331472407+332359760+333693284+335398411
2421.86+337379992+339522038+341701715+343809519+345762321+347500525+348976520
2415.11+350149214+350991869+351505214+351720541+351683312+351426348+350949540
2408.36+350220722+349193814+347829945+346111412+344043934+341657382+339006872
2401.61+336173711+333262667+330395519+327704683+325330553+323415782+322092384
2394.86+321461886+321576125+322430000+323970910+326121626+328803282+331949688
2388.10+335506712+339424302+343652295+348145850+352878117+357846549+363068775
2381.35+368567891+374352968+380400437+386641631+392963841+399229696+405306271
2374.60+411087596+416493201+421447098+425854718+429595959+432536146+434543991
2367.85+435507296+435343734+434008243+431496633+427841545+423107747+417393158
2361.10+410839557+403640449+396037281+388299074+380697800+373488675+366902325
2354.35+361138340+356360537+352692589+350217990+348982713+348996738+350227717
2347.60+352591720+355950538+360122614+364908468+370124866+375629701+381334090
2340.84+387196723+393211916+399391109+405740057+412232714+418790213+425278899
2334.09+431527560+437356606+442600252+447117157+450790205+453525884+455256001
2327.34+455940157+455568190+454161809+451776204+448500624+444456301+439792518
2320.59+434682928+429319288+423898674+418604903+413590099+408961541+404777845
2313.84+401052268+397760805+394855699+392286023+390019683+388056863+386424374
2307.09+385152923+384251218+383694086+383432714+383417123+383614272+384007441
2300.33+384582422+385315975+386180961+387166305+388297034+389639046+391286107
2293.58+393340945+395900749+399047264+402834659+407269856+412293512+417771865
2286.83+423508092+429264536+434786712+439825049+444153802+447588938+449998366
2280.08+451302165+451465545+450494445+448437640+445386530+441466864+436819510
2273.33+431584024+425894207+419881235+413674357+407391890+401131208+394963635
2266.58+388939772+383095171+377452309+372022516+366814642+361848834+357168694
2259.83+352842600+348956193+345602511+342873098+340851555+339606005+339184350
2253.07+339610085+340881354+342972291+345838893+349428374+353685947+358553327
2246.32+363958568+369808524+375989684+382378120+388845241+395254696+401458077
2239.57+407303843+412659834+417434686+421581627+425081495+427918299+430069343
2232.82+431514118+432254265+432325919+431792539+430718018+429134124+427020455
2226.07+424311987+420927779+416806556+411929086+406324692+400074355+393316683
2219.32+386257278+379163156+372335943+366071873+360627435+356203276+352944125
2212.56+350941016+350227680+350770095+352457555+355103766+358463095+362263094
2205.81+366245781+370204243+373996337+377532451+380751750+383604473+386052661
2199.06+388076170+389670811+390836948+391574581+391896387+391849723+391526460
2192.31+391047029+390531681+390077094+389752447+389605605+389666039+389943877
2185.56+390433798+391129794+392046945+393237634+394795009+396839137+399491141
2178.81+402837282+406897925+411610704+416839305+422399948+428089948+433707456
2172.06+439062462+443986779+448348573+452065152+455109232+457503762+459312381
2165.30+460625943+461545170+462156543+462507856+462591058+462345860+461685783
2158.55+460539280+458887921+456787330+454360561+451768154+449169554+446690183
2151.80+444404391+442333890+440458169+438733043+437108239+435541612+434003944
2145.05+432478589+430958335+429449045+427976875+426595375+425385561+424442218
2138.30+423855106+423690706+423984280+424745482+425972017+427662974+429826294
2131.55+432477752+435632937+439293307+443426624+447950414+452729346+457592245
2124.80+462366224+466910085+471135456+475007000+478527705+481715202+484577797
2118.04+487098987+489237828+490944923+492179435+492913571+493120191+492763669
2111.29+491804444+490225103+488052056+485361767+482267598+478904481+475418456
2104.54+471962119+468683516+465707775+463123200+460980461+459305278+458111091
2097.79+457400488+457154270+457323224+457835549+458622287+459650070+460936821
2091.04+462545195+464558796+467056089+470092992+473692091+477837320+482476368
2084.29+487533502+492922314+498544193+504268945+509915231+515258799+520072156
2077.53+524172396+527445791+529840830+531352087+532015407+531917853+531201202
2070.78+530046066+528636335+527123511+525598776+524079286+522500273+520720941
2064.03+518544106+515750725+512144122+507589368+502036302+495521497+488155038
2057.28+480101072+471562612+462767115+453945026+445298410+436967882+429018792
2050.53+421457188+414270102+407467187+401099552+395254550+390035712+385546092
2043.78+381874938+379077769+377148062+375996277+375457360+375327785+375409748
2037.03+375532584+375547957+375321228+374740964+373749318+372366069+370687389
2030.27+368859644+367047054+365411431+364103479+363258748+362987468+363362859
2023.52+364411224+366107573+368375952+371092360+374096842+377217385+380304121
2016.77+383255163+386015759+388548461+390794291+392652125+393988527+394666527
2010.02+394571669+393625740+391790418+389068982+385509591+381205972+376293932
2003.27+370944790+365355368+359734764+354287995+349202848+344645508+340765039
1996.52+337697026+335558294+334433358+334358206+335311931+337218069+339953639
1989.77+343356426+347229282+351348501+355479231+359401192+362930567+365929913
1983.01+368305645+370006802+371034367+371452962+371388011+370999214+370442410
1976.26+369845316+369309459+368927911+368797680+369011950+369638514+370697370
1969.51+372148339+373888474+375759385+377559262+379060611+380028652+380242011
1962.76+379512465+377709273+374785188+370799806+365926088+360430177+354630019
1956.01+348856234+343429756+338652572+334795089+332073690+330625562+330492527
1949.26+331616772+333846537+336948938+340629854+344566277+348446309+352012658
1942.50+355094368+357616214+359585190+361060675+362121863+362843504+363285231
1935.75+363498372+363541794+363492361+363439213+363461325+363605653+363881632
1929.00+364275165+364768256+365347427+365995957+366678219+367328607+367852079
1922.25+368133195+368051086+367494027+366374372+364641851+362295625+359390409
1915.50+356028968+352344664+348478985+344568972+340748464+337154866+333926570
1908.75+331185572+329017589+327467390+326554210+326292510+326700469+327786355
1902.00+329526490+331849074+334632911+337718191+340920295+344042295+346886092
1895.24+349263974+351012378+352005773+352170720+351495415+350031515+347883895
1888.49+345188360+342086760+338707105+335153250+331498708+327778049+323979907
1881.74+320045670+315881718+311380295+306440751+300988171+294988168+288460723
1874.99+281491841+274239257+266929390+259839239+253264546+247471928+242645712
1868.24+238846477+235997216+233901087+232282312+230838356+229294642+227455331
1861.49+225238261+222683320+219932214+217188593+214672977+212582950+211064225
1854.74+210194339+209980197+210367774+211258041+212518818+213990186+215487564
1847.98+216815187+217792936+218287703+218232478+217623509+216502524+214941543
1841.23+213037081+210906345+208670278+206423227+204206904+202006901+199772691
1834.48+197445207+194976200+192339387+189538447+186614744+183647801+180748014
1827.73+178045776+175682010+173794942+172496152+171838351+171790776+172237348
1820.98+172998350+173865831+174639309+175153674+175294123+174998017+174248017
1814.23+173065432+171509624+169680167+167711537+165752195+163933012+162339336
1807.47+161002515+159914225+159052518+158401911+157957561+157715970+157665080
1800.72+157780921+158030235+158369235+158738890+159061952+159251433+159226881
1793.97+158926094+158303574+157319104+155930445+154097728+151795826+149022517
1787.22+145796179+142146245+138105674+133710330+129005410+124054328+118945311
1780.47+113791187+108719145+103850618+99279945+95063290+91224968+87776236
1773.72+84731364+82109441+79922834+78165969+76815779+75841532+75213483+74902478
1766.00+74873003+75076678+75449715+75913878+76379966+76755800+76958450+76927194
1758.29+76631744+76072012+75270052+74258352+73071965+71748841+70333682+68876507
1750.57+67419764+65982083+64551287+63093256+61568438+59943371+58194010+56307621
1742.85+54289644+52169924+49998876+47830893+45706965+43651909+41686566+39840908
1735.14+38152107+36648794+35337941+34209366+33253725+32474689+31882393+31474498
1727.42+31224009+31085518+31013400+30977136+30964479+30975870+31018579+31105408
1719.70+31256721+31503171+31886304+32453308+33243809+34272544+35518081+36926274
1711.99+38428403+39963311+41491430+42994381+44462762+45880376+47214224+48416989
1704.27+49440028+50247175+50818226+51141804+51207010+51005576+50546136+49869756
1696.56+49052829+48190229+47363880+46613510+45927478+45259104+44556692+43788259
1688.84+42947576+42043675+41087984+40090354+39063008+38021694+36978896+35935652
1681.12+34884047+33823513+32782081+31829986+31076177+30645806+30643848+31119499
1673.41+32048334+33341755+34875960+36523506+38174096+39744597+41183398+42471442
1665.69+43616883+44642244+45568615+46405155+47147624+47783213+48295857+48670228
1657.98+48896629+48977377+48931332+48792172+48600915+48397805+48219339+48099942
1650.26+48072484+48161783+48374036+48691052+49078565+49504187+49951702+50420937
1642.54+50918012+51450136+52030682+52686106+53451647+54353853+55392628+56536062
1634.83+57730326+58915747+60039673+61063995+61971028+62766809+63479252+64150673
1627.11+64831232+65577244+66450157+67506486+68778469+70257560+71895537+73624689
1619.40+75381422+77115956+78784254+80331703+81683113+82744984+83416299+83599597
1611.68+83205809+82154885+80380917+77853297+74614068+70814765+66724957+62695224
1603.96+59080133+56152369+54045894+52754017+52180816+52217585+52804679+53951532
1596.25+55711807+58132501+61202704+64822289+68801050+72888568+76825168+80394578
1588.53+83456553+85948810+87863763+89218999+90035835+90329373+90105313+89360413
1580.82+88086958+86283329+83971091+81214547+78133011+74894022+71682323+68657414
1573.10+65921494+63510763+61405882+59549992+57867842+56283469+54732414+53163369
1565.38+51531284+49793376+47917664+45903394+43799934+41707649+39754687+38059083
1557.67+36697585+35698851+35058929+34760348+34779405+35081105+35613249+36309304
1549.95+37100450+37931628+38774493+39632653+40535711+41523336+42627600+43865264
1542.24+45244974+46780966+48497750+50418214+52544933+54851548+57289796+59802189
1534.52+62328493+64805673+67168169+69350805+71291213+72931189+74225006+75161874
1526.80+75793415+76240693+76659566+77172392+77801815+78446657+78917035+79010127
1519.09+78586732+77612535+76153338+74336030+72296388+70136742+67909199+65627259
1511.37+63292331+60914881+58519040+56133804+53784154+51490794+49275564+47164559
1503.66+45183370+43349191+41668306+40142515+38778705+37592669+36602487+35817342
1495.94+35230947+34824323+34574299+34460470+34467653+34584369+34799431+35097215
1488.22+35453863+35838482+36221626+36587066+36937430+37287647+37650271+38024663
1480.51+38399884+38767758+39133533+39512472+39915258+40335743+40752299+41140463
1472.79+41483060+41767578+41974658+42072058+42024387+41813268+41452292+40985243
1465.08+40469070+39955001+39480238+39070795+38747864+38529846+38430889+38460282
1457.36+38622583+38913739+39311216+39767341+40218426+40610766+40926543+41188981
1449.64+41440207+41708774+41991469+42259498+42478723+42625332+42688635+42665071
1441.93+42552485+42350168+42063542+41709406+41317080+40923292+40564543+40272923
1434.21+40079052+40018254+40133171+40469666+41070006+41966097+43173398+44684614
1426.50+46465849+48459428+50592222+52782303+54938056+56953432+58711995+60108454
1418.78+61080880+61632984+61825325+61735643+61411911+60850431+60016163+58892055
1411.06+57522107+56018454+54530990+53205366+52154414+51449120+51118121+51149531
1403.35+51500256+52117335+52962677+54024243+55307041+56811977+58514810+60352130
1395.63+62219154+63988477+65554244+66886370+68058313+69220201+70526017+72056882
1387.92+73785806+75597327+77341892+78889322+80160181+81130307+81817132+82256301
1380.20+82476927+82483721+82252020+81735551+80879873+79633275+77951653+75803100
1372.48+73177293+70099421+66640863+62918560+59082319+55296194+51721425+48505655
1364.77+45777016+43639733+42168105+41399194+41328714+41915804+43100086+44825919
1357.05+47061836+49804063+53061980+56833784+61087487+65757513+70757750+76001893
1349.34+81417834+86947978+92536508+98112934+103583044+108831316+113732064
1342.59+118161004+122001448+125142426+127471886+128869961+129208989+128363228
1335.83+126231199+122771894+118052494+112295075+105897505+99403928+93420181
1329.08+88502093+85063606+83339618+83405672+85224464+88684216+93609024+99745259
1321.37+106746271+114180349+121577616+128506236+134648472+139840700+144060515
1314.61+147373462+149870281+151623503+152673453+153037670+152726920+151754262
1307.86+150131699+147860478+144927022+141308671+136984899+131943757+126181994
1301.11+119707014+112549343+104785163+96557917+88088324+79666125+71622987
1294.36+64288999+57939906+52750706+48772910+45945879+44136303+43187778+42961555
1286.64+43359336+44331138+45874124+48024827+50840794+54370310+58618484+63525498
1278.93+68966949+74772903+80750526+86701424+92434309+97778095+102593866
1272.18+106778473+110257869+112978457+114905214+116026298+116354561+115919892
1265.43+114758172+112906321+110406477+107309577+103673003+99555396+95017736
1258.67+90132834+84995367+79720521+74430010+69233138+64214937+59435945+54941161
1250.96+50770278+46964755+43569417+40630783+38194052+36298822+34971768+34214484
1243.24+33991253+34225427+34811145+35636135+36602202+37632981+38671019+39673871
1235.53+40614646+41482163+42274671+42993288+43646636+44268300+44930545+45732692
1227.81+46764956+48070949+49635715+51400976+53288217+55206818+57045377+58662398
1220.09+59897530+60612109+60748814+60383327+59734842+59119271+58861715+59210960
1212.38+60296072+62131781+64648440+67716517+71155814+74741594+78220438+81336354
1204.66+83857289+85592925+86404926+86214799+85014064+82874759+79954207+76487971
1196.95+72768369+69112570+65823657+63150853+61254951+60189661+59910184+60312237
1189.23+61291179+62799681+64882751+67677042+71375690+76167203+82166059+89355841
1181.51+97564117+106480846+115716668+124881373+133652209+141808401+149228227
1174.76+155862944+161711679+166811926+171240930+175111691+178552181+181674053
1168.01+184550855+187218868+189694578+191992446+194130995+196129187+198000427
1161.26+199748758+201367423+202839520+204143228+205264576+206211325+207016915
1154.51+207726316+208368635+208935602+209383595+209656169+209707514+209507542
1147.76+209030862+208246965+207123358+205636726+203777617+201547542+198958504
1141.00+196042069+192858488+189494078+186045846+182610766+179292492+176218814
1134.25+173553114+171484561+170194933+169813949+170378421+171815201+173962220
1127.50+176619378+179603205+182772488+186017068+189229737+192292431+195091750
1120.75+197550066+199647870+201419370+202924416+204214408+205312115+206216334
1114.00+206927447+207472485+207911535+208318000+208744609+209199506+209646479
1107.25+210027335+210291220+210413946+210399594+210269108+210044565+209737494
1100.50+209342759+208835279+208168827+207277631+206082697+204503320+202467953
1093.74+199918258+196805347+193080463+188689909+183582741+177736974+171199110
1086.99+164123931+156789639+149566371+142832960+136867637+131764767+127425969
1080.24+123635222+120179140+116947839+113972845+111393197+109382100+108075178
1073.49+107530004+107724557+108582986+110013208+111942842+114346816+117258762
1066.74+120757482+124925051+129787185+135263361+141151192+147153581+152935016
1059.99+158184672+162666060+166244503+168887127+170638263+171578491+171784820
1053.23+171308358+170176118+168409627+166044932+163136037+159736565+155868937
1046.48+151506705+146586705+141047727+134871594+128099925+120822734+113156646
1039.73+105232291+97193096+89193034+81387035+73921624+66937042+60578937
1032.98+55001632+50346956+46703652+44073150+42369452+41458262+41215387+41572332
1025.26+42529995+44142828+46493503+49677270+53800351+58980097+65331208+72932259
1017.55+81786350+91795314+102760870+114408380+126422247+138482924+150301718
1010.80+161647019+172354210+182315607+191461834+199751180+207173082+213756172
1004.05+219561193+224653790+229065636+232764438+235642533+237527178+238204286
997.29+237449805+235063326+230897843+224881557+217026652+207424345+196232297
990.54+183663320+169983340+155515948+140643494+125792423+111402868+97892507
983.79+85621667+74864652+65785412+58421968+52689598+48410901+45369221+43368411
976.07+42275490+42031691+42636097+44124190+46561710+50053090+54741271+60778982
968.36+68278421+77272105+87711084+99493505+112489893+126538042+141413165
961.61+156804502+172327726+187575755+202183632+215876125+228481712+239918776
954.86+250170177+259265660+267270594+274276996+280388870+285705336+290310433
948.10+294273922+297658586+300524623+302925328+304894978+306435796+307510936
941.35+308046357+307933174+307015186+305046191+301630800+296199895+288099975
934.60+276844050+262466963+245805105+228475737+212456453+199432653+190301835
927.85+185166253+183795208+186152872+192531855+203171417+217684799+234792283
921.10+252603066+269259023+283514075+294935584+303715417+310306357+315131517
914.35+318478460+320536466+321469973+321455949+320678427+319307272+317478654
907.60+315281564+312749919+309865431+306576373+302824149+298566011+293790211
900.84+288524745+282839080+276838312+270651305+264417525+258273941+252329891
894.09+246628326+241104147+235581316+229808661+223520875+216489410+208549282
887.34+199611114+189677894+178867758+167428454+155724718+144192057+133268247
880.59+123327186+114639161+107364574+101557977+97177869+94086788+92064290
873.84+90840442+90138636+89708128+89335769+88843552+88081612+86927734+85302793
866.12+83202985+80733213+78112629+75637789+73618178+72317134+71920090+72533840
858.41+74211856+76999331+80980142+86296416+93120405+101588668+111729574
851.65+123412473+136334630+150057067+164091656+178018600+191557184+204592969
844.90+217127686+229218470+240939874+252365991+263553067+274518934+285236688
838.15+295649575+305696415+315328557+324513179+333223944+341428322+349084056
831.40+356150893+362618232+368514779+373890003+378782774+383214109+387205502
824.65+390790357+393995339+396811015+399196291+401118130+402586985+403651596
817.90+404363875+404748739+404797297+404480555+403769369+402640534+401060282
811.15+398948690+396133233+392269083+386661120+378029987+364521419+344383189
804.39+317380917+286260446+256999503+236948591+231429530+240965246+261224017
797.64+285609384+308407286+326503976+339273598+347493167+352304994+354695626
790.89+355394062+354919513+353630322+351766368+349498098+346960843+344259115
784.14+341445079+338508717+335390251+332013292+328316420+324263537+319825462
777.39+314947482+309531094+303447197+296573028+288815332+280081016+270193404
770.64+258814625+245465485+229688557+211279897+190446618+167800585+144242783
763.88+120869727+98952310+79885877+64976548+55073832+50236442+49642609+51806216
756.17+54997124+57704831+59004809+58723033+57332681+55617777+54257250+53530737
748.45+53272790+53054503+52463402+51333798+49832449+48382387+47483801+47536868
740.74+48756231+51195098+54823321+59589685+65438698+72299393+80061269+88531518
733.02+97370683+106063189+114023726+120887813+126873873+132954264+140607958
726.27+151183697+165218724+182148493+200587606+218973116+236156661+251652984
719.52+265524703+278089418+289661466+300435994+310491558+319826555+328380607
712.77+336045265+342677151+348068695+351810154+353066487+350436705+342116121
706.01+326454069+302788722+272281100+238399650+206695182+183627092+174626559
699.26+182198891+205116879+239140380+278666676+318290527+353735526+382296011
692.51+403079019+417016746+426392580+433834590+441210738+449062382+456858073
685.76+463747068+469213690+473273641+476282349+478639066+480608225+482294956
679.01+483700936+484784927+485499501+485806117+485686123+485146367+484212059
672.26+482901666+481206119+479092778+476534322+473532608+470114084+466304905
665.51+462117201+457556874+452637183+447378019+441790674+435854383+429491192
658.75+422545806+414776599+405857319+395354728+382656467+366890194+346969075
652.00+321912357+291445515+256646806+220225296+186072475+158095223+138865164
645.25+128896217+127015633+131506228+141144162+155422382+173943241+195601380
638.50+218264279+239203801+255954690+267044703+272227915+272212414+268134997
631.75+261075518+251788642+240671545+227875857+213450030+197446865+179992440
625.00+161359164+142065119+122951548+105128407+89717854+77478971+68531560
618.25+62376236+58169763+55079515+52510026+50155799+47965572+46106222+44936219
##END=
